20J6M/DAT/20J6MNTL-18.dat
20 6
21.216 21.216
24.77 24.77
22.0772 22.0772
29.2202 29.2202
24.4544 24.4544
28.601 28.601
24.453 24.453
19.8338 19.8338
30.6469 30.6469
32.2624 32.2624
28.0343 28.0343
28.1116 28.1116
28.9433 28.9433
27.5337 27.5337
27.2198 27.2198
23.6943 23.6943
25.4657 25.4657
20.752 20.752
27.0388 27.0388
33.2514 33.2514
65.9475