20J6M/SOL/20J6MNTL-18.sol
solution status: optimal solution found
objective value:                              65.9475
x#1#5                                               1 	(obj:0)
x#2#5                               0.968086394832459 	(obj:0)
x#3#3                                               1 	(obj:0)
x#4#1                               0.324107980095961 	(obj:0)
x#4#6                               0.372153510242914 	(obj:0)
x#6#4                                               1 	(obj:0)
x#7#3                              0.0139941929415613 	(obj:0)
x#8#3                                               1 	(obj:0)
x#9#2                                               1 	(obj:0)
x#10#2                              0.222829051775441 	(obj:0)
x#10#4                              0.126931040468161 	(obj:0)
x#11#6                                              1 	(obj:0)
x#12#2                                              1 	(obj:0)
x#13#1                                              1 	(obj:0)
x#14#1                                              1 	(obj:0)
x#16#3                                              1 	(obj:0)
x#18#5                                              1 	(obj:0)
x#19#6                                              1 	(obj:0)
x#20#4                                              1 	(obj:0)
z                                             65.9475 	(obj:1)
